c nIsolatedPIs 128
c maxPI 128
p cnf 443 946
c gate 129 -59 -123 0
-59 -129 0
-123 -129 0
59 123 129 0
c gate 130 -58 -122 0
-58 -130 0
-122 -130 0
58 122 130 0
c gate 131 -129 -130 0
-129 -131 0
-130 -131 0
129 130 131 0
c gate 132 58 122 0
58 -132 0
122 -132 0
-58 -122 132 0
c gate 133 57 121 0
57 -133 0
121 -133 0
-57 -121 133 0
c gate 134 -132 -133 0
-132 -134 0
-133 -134 0
132 133 134 0
c gate 135 131 -134 0
131 -135 0
-134 -135 0
-131 134 135 0
c gate 136 59 123 0
59 -136 0
123 -136 0
-59 -123 136 0
c gate 137 60 124 0
60 -137 0
124 -137 0
-60 -124 137 0
c gate 138 -136 -137 0
-136 -138 0
-137 -138 0
136 137 138 0
c gate 139 -135 138 0
-135 -139 0
138 -139 0
135 -138 139 0
c gate 140 63 127 0
63 -140 0
127 -140 0
-63 -127 140 0
c gate 141 64 128 0
64 -141 0
128 -141 0
-64 -128 141 0
c gate 142 -140 -141 0
-140 -142 0
-141 -142 0
140 141 142 0
c gate 143 -63 -127 0
-63 -143 0
-127 -143 0
63 127 143 0
c gate 144 -64 -128 0
-64 -144 0
-128 -144 0
64 128 144 0
c gate 145 -143 -144 0
-143 -145 0
-144 -145 0
143 144 145 0
c gate 146 142 145 0
142 -146 0
145 -146 0
-142 -145 146 0
c gate 147 -62 -126 0
-62 -147 0
-126 -147 0
62 126 147 0
c gate 148 146 -147 0
146 -148 0
-147 -148 0
-146 147 148 0
c gate 149 -57 -121 0
-57 -149 0
-121 -149 0
57 121 149 0
c gate 150 131 -149 0
131 -150 0
-149 -150 0
-131 149 150 0
c gate 151 61 125 0
61 -151 0
125 -151 0
-61 -125 151 0
c gate 152 62 126 0
62 -152 0
126 -152 0
-62 -126 152 0
c gate 153 -151 -152 0
-151 -153 0
-152 -153 0
151 152 153 0
c gate 154 -61 -125 0
-61 -154 0
-125 -154 0
61 125 154 0
c gate 155 -60 -124 0
-60 -155 0
-124 -155 0
60 124 155 0
c gate 156 -154 -155 0
-154 -156 0
-155 -156 0
154 155 156 0
c gate 157 153 156 0
153 -157 0
156 -157 0
-153 -156 157 0
c gate 158 150 157 0
150 -158 0
157 -158 0
-150 -157 158 0
c gate 159 148 158 0
148 -159 0
158 -159 0
-148 -158 159 0
c gate 160 139 159 0
139 -160 0
159 -160 0
-139 -159 160 0
c gate 161 -56 -120 0
-56 -161 0
-120 -161 0
56 120 161 0
c gate 162 56 120 0
56 -162 0
120 -162 0
-56 -120 162 0
c gate 163 55 119 0
55 -163 0
119 -163 0
-55 -119 163 0
c gate 164 -162 -163 0
-162 -164 0
-163 -164 0
162 163 164 0
c gate 165 -55 -119 0
-55 -165 0
-119 -165 0
55 119 165 0
c gate 166 -54 -118 0
-54 -166 0
-118 -166 0
54 118 166 0
c gate 167 -165 -166 0
-165 -167 0
-166 -167 0
165 166 167 0
c gate 168 54 118 0
54 -168 0
118 -168 0
-54 -118 168 0
c gate 169 53 117 0
53 -169 0
117 -169 0
-53 -117 169 0
c gate 170 -168 -169 0
-168 -170 0
-169 -170 0
168 169 170 0
c gate 171 -53 -117 0
-53 -171 0
-117 -171 0
53 117 171 0
c gate 172 50 114 0
50 -172 0
114 -172 0
-50 -114 172 0
c gate 173 49 113 0
49 -173 0
113 -173 0
-49 -113 173 0
c gate 174 -172 -173 0
-172 -174 0
-173 -174 0
172 173 174 0
c gate 175 -51 -115 0
-51 -175 0
-115 -175 0
51 115 175 0
c gate 176 -50 -114 0
-50 -176 0
-114 -176 0
50 114 176 0
c gate 177 -52 -116 0
-52 -177 0
-116 -177 0
52 116 177 0
c gate 178 -176 -177 0
-176 -178 0
-177 -178 0
176 177 178 0
c gate 179 -175 178 0
-175 -179 0
178 -179 0
175 -178 179 0
c gate 180 -174 179 0
-174 -180 0
179 -180 0
174 -179 180 0
c gate 181 52 116 0
52 -181 0
116 -181 0
-52 -116 181 0
c gate 182 51 115 0
51 -182 0
115 -182 0
-51 -115 182 0
c gate 183 -177 182 0
-177 -183 0
182 -183 0
177 -182 183 0
c gate 184 -181 -183 0
-181 -184 0
-183 -184 0
181 183 184 0
c gate 185 -180 184 0
-180 -185 0
184 -185 0
180 -184 185 0
c gate 186 -171 -185 0
-171 -186 0
-185 -186 0
171 185 186 0
c gate 187 170 -186 0
170 -187 0
-186 -187 0
-170 186 187 0
c gate 188 167 -187 0
167 -188 0
-187 -188 0
-167 187 188 0
c gate 189 164 -188 0
164 -189 0
-188 -189 0
-164 188 189 0
c gate 190 -161 -189 0
-161 -190 0
-189 -190 0
161 189 190 0
c gate 191 164 167 0
164 -191 0
167 -191 0
-164 -167 191 0
c gate 192 170 174 0
170 -192 0
174 -192 0
-170 -174 192 0
c gate 193 191 192 0
191 -193 0
192 -193 0
-191 -192 193 0
c gate 194 -49 -113 0
-49 -194 0
-113 -194 0
49 113 194 0
c gate 195 -161 -171 0
-161 -195 0
-171 -195 0
161 171 195 0
c gate 196 -194 195 0
-194 -196 0
195 -196 0
194 -195 196 0
c gate 197 179 196 0
179 -197 0
196 -197 0
-179 -196 197 0
c gate 198 184 197 0
184 -198 0
197 -198 0
-184 -197 198 0
c gate 199 193 198 0
193 -199 0
198 -199 0
-193 -198 199 0
c gate 200 44 108 0
44 -200 0
108 -200 0
-44 -108 200 0
c gate 201 -44 -108 0
-44 -201 0
-108 -201 0
44 108 201 0
c gate 202 43 107 0
43 -202 0
107 -202 0
-43 -107 202 0
c gate 203 -201 202 0
-201 -203 0
202 -203 0
201 -202 203 0
c gate 204 -200 -203 0
-200 -204 0
-203 -204 0
200 203 204 0
c gate 205 -42 -106 0
-42 -205 0
-106 -205 0
42 106 205 0
c gate 206 -43 -107 0
-43 -206 0
-107 -206 0
43 107 206 0
c gate 207 -201 -206 0
-201 -207 0
-206 -207 0
201 206 207 0
c gate 208 -205 207 0
-205 -208 0
207 -208 0
205 -207 208 0
c gate 209 204 208 0
204 -209 0
208 -209 0
-204 -208 209 0
c gate 210 42 106 0
42 -210 0
106 -210 0
-42 -106 210 0
c gate 211 41 105 0
41 -211 0
105 -211 0
-41 -105 211 0
c gate 212 -210 -211 0
-210 -212 0
-211 -212 0
210 211 212 0
c gate 213 -41 -105 0
-41 -213 0
-105 -213 0
41 105 213 0
c gate 214 212 -213 0
212 -214 0
-213 -214 0
-212 213 214 0
c gate 215 209 214 0
209 -215 0
214 -215 0
-209 -214 215 0
c gate 216 -46 -110 0
-46 -216 0
-110 -216 0
46 110 216 0
c gate 217 -47 -111 0
-47 -217 0
-111 -217 0
47 111 217 0
c gate 218 -216 -217 0
-216 -218 0
-217 -218 0
216 217 218 0
c gate 219 47 111 0
47 -219 0
111 -219 0
-47 -111 219 0
c gate 220 48 112 0
48 -220 0
112 -220 0
-48 -112 220 0
c gate 221 -219 -220 0
-219 -221 0
-220 -221 0
219 220 221 0
c gate 222 -48 -112 0
-48 -222 0
-112 -222 0
48 112 222 0
c gate 223 221 -222 0
221 -223 0
-222 -223 0
-221 222 223 0
c gate 224 218 223 0
218 -224 0
223 -224 0
-218 -223 224 0
c gate 225 45 109 0
45 -225 0
109 -225 0
-45 -109 225 0
c gate 226 46 110 0
46 -226 0
110 -226 0
-46 -110 226 0
c gate 227 -225 -226 0
-225 -227 0
-226 -227 0
225 226 227 0
c gate 228 -45 -109 0
-45 -228 0
-109 -228 0
45 109 228 0
c gate 229 227 -228 0
227 -229 0
-228 -229 0
-227 228 229 0
c gate 230 224 229 0
224 -230 0
229 -230 0
-224 -229 230 0
c gate 231 215 230 0
215 -231 0
230 -231 0
-215 -230 231 0
c gate 232 40 104 0
40 -232 0
104 -232 0
-40 -104 232 0
c gate 233 -40 -104 0
-40 -233 0
-104 -233 0
40 104 233 0
c gate 234 39 103 0
39 -234 0
103 -234 0
-39 -103 234 0
c gate 235 -233 234 0
-233 -235 0
234 -235 0
233 -234 235 0
c gate 236 -232 -235 0
-232 -236 0
-235 -236 0
232 235 236 0
c gate 237 38 102 0
38 -237 0
102 -237 0
-38 -102 237 0
c gate 238 37 101 0
37 -238 0
101 -238 0
-37 -101 238 0
c gate 239 -237 -238 0
-237 -239 0
-238 -239 0
237 238 239 0
c gate 240 -38 -102 0
-38 -240 0
-102 -240 0
38 102 240 0
c gate 241 -39 -103 0
-39 -241 0
-103 -241 0
39 103 241 0
c gate 242 -233 -241 0
-233 -242 0
-241 -242 0
233 241 242 0
c gate 243 -240 242 0
-240 -243 0
242 -243 0
240 -242 243 0
c gate 244 236 243 0
236 -244 0
243 -244 0
-236 -243 244 0
c gate 245 -239 244 0
-239 -245 0
244 -245 0
239 -244 245 0
c gate 246 236 -245 0
236 -246 0
-245 -246 0
-236 245 246 0
c gate 247 -37 -101 0
-37 -247 0
-101 -247 0
37 101 247 0
c gate 248 239 -247 0
239 -248 0
-247 -248 0
-239 247 248 0
c gate 249 244 248 0
244 -249 0
248 -249 0
-244 -248 249 0
c gate 250 36 100 0
36 -250 0
100 -250 0
-36 -100 250 0
c gate 251 -36 -100 0
-36 -251 0
-100 -251 0
36 100 251 0
c gate 252 35 99 0
35 -252 0
99 -252 0
-35 -99 252 0
c gate 253 -251 252 0
-251 -253 0
252 -253 0
251 -252 253 0
c gate 254 -250 -253 0
-250 -254 0
-253 -254 0
250 253 254 0
c gate 255 -35 -99 0
-35 -255 0
-99 -255 0
35 99 255 0
c gate 256 -251 -255 0
-251 -256 0
-255 -256 0
251 255 256 0
c gate 257 254 256 0
254 -257 0
256 -257 0
-254 -256 257 0
c gate 258 33 97 0
33 -258 0
97 -258 0
-33 -97 258 0
c gate 259 34 98 0
34 -259 0
98 -259 0
-34 -98 259 0
c gate 260 -258 -259 0
-258 -260 0
-259 -260 0
258 259 260 0
c gate 261 -34 -98 0
-34 -261 0
-98 -261 0
34 98 261 0
c gate 262 -260 -261 0
-260 -262 0
-261 -262 0
260 261 262 0
c gate 263 257 262 0
257 -263 0
262 -263 0
-257 -262 263 0
c gate 264 254 -263 0
254 -264 0
-263 -264 0
-254 263 264 0
c gate 265 249 -264 0
249 -265 0
-264 -265 0
-249 264 265 0
c gate 266 246 -265 0
246 -266 0
-265 -266 0
-246 265 266 0
c gate 267 -33 -97 0
-33 -267 0
-97 -267 0
33 97 267 0
c gate 268 -261 -267 0
-261 -268 0
-267 -268 0
261 267 268 0
c gate 269 260 268 0
260 -269 0
268 -269 0
-260 -268 269 0
c gate 270 257 269 0
257 -270 0
269 -270 0
-257 -269 270 0
c gate 271 249 270 0
249 -271 0
270 -271 0
-249 -270 271 0
c gate 272 -24 -88 0
-24 -272 0
-88 -272 0
24 88 272 0
c gate 273 23 87 0
23 -273 0
87 -273 0
-23 -87 273 0
c gate 274 24 88 0
24 -274 0
88 -274 0
-24 -88 274 0
c gate 275 -273 -274 0
-273 -275 0
-274 -275 0
273 274 275 0
c gate 276 -22 -86 0
-22 -276 0
-86 -276 0
22 86 276 0
c gate 277 -23 -87 0
-23 -277 0
-87 -277 0
23 87 277 0
c gate 278 -276 -277 0
-276 -278 0
-277 -278 0
276 277 278 0
c gate 279 22 86 0
22 -279 0
86 -279 0
-22 -86 279 0
c gate 280 21 85 0
21 -280 0
85 -280 0
-21 -85 280 0
c gate 281 -279 -280 0
-279 -281 0
-280 -281 0
279 280 281 0
c gate 282 -21 -85 0
-21 -282 0
-85 -282 0
21 85 282 0
c gate 283 20 84 0
20 -283 0
84 -283 0
-20 -84 283 0
c gate 284 -20 -84 0
-20 -284 0
-84 -284 0
20 84 284 0
c gate 285 19 -284 0
19 -285 0
-284 -285 0
-19 284 285 0
c gate 286 83 285 0
83 -286 0
285 -286 0
-83 -285 286 0
c gate 287 -283 -286 0
-283 -287 0
-286 -287 0
283 286 287 0
c gate 288 83 -284 0
83 -288 0
-284 -288 0
-83 284 288 0
c gate 289 -285 -288 0
-285 -289 0
-288 -289 0
285 288 289 0
c gate 290 18 82 0
18 -290 0
82 -290 0
-18 -82 290 0
c gate 291 17 81 0
17 -291 0
81 -291 0
-17 -81 291 0
c gate 292 -290 -291 0
-290 -292 0
-291 -292 0
290 291 292 0
c gate 293 -18 -82 0
-18 -293 0
-82 -293 0
18 82 293 0
c gate 294 -292 -293 0
-292 -294 0
-293 -294 0
292 293 294 0
c gate 295 -289 294 0
-289 -295 0
294 -295 0
289 -294 295 0
c gate 296 287 -295 0
287 -296 0
-295 -296 0
-287 295 296 0
c gate 297 -282 -296 0
-282 -297 0
-296 -297 0
282 296 297 0
c gate 298 281 -297 0
281 -298 0
-297 -298 0
-281 297 298 0
c gate 299 278 -298 0
278 -299 0
-298 -299 0
-278 298 299 0
c gate 300 275 -299 0
275 -300 0
-299 -300 0
-275 299 300 0
c gate 301 -272 -300 0
-272 -301 0
-300 -301 0
272 300 301 0
c gate 302 2 66 0
2 -302 0
66 -302 0
-2 -66 302 0
c gate 303 1 65 0
1 -303 0
65 -303 0
-1 -65 303 0
c gate 304 -302 -303 0
-302 -304 0
-303 -304 0
302 303 304 0
c gate 305 -3 -67 0
-3 -305 0
-67 -305 0
3 67 305 0
c gate 306 -2 -66 0
-2 -306 0
-66 -306 0
2 66 306 0
c gate 307 -305 -306 0
-305 -307 0
-306 -307 0
305 306 307 0
c gate 308 -304 307 0
-304 -308 0
307 -308 0
304 -307 308 0
c gate 309 4 68 0
4 -309 0
68 -309 0
-4 -68 309 0
c gate 310 3 67 0
3 -310 0
67 -310 0
-3 -67 310 0
c gate 311 -309 -310 0
-309 -311 0
-310 -311 0
309 310 311 0
c gate 312 -308 311 0
-308 -312 0
311 -312 0
308 -311 312 0
c gate 313 -4 -68 0
-4 -313 0
-68 -313 0
4 68 313 0
c gate 314 -5 -69 0
-5 -314 0
-69 -314 0
5 69 314 0
c gate 315 -313 -314 0
-313 -315 0
-314 -315 0
313 314 315 0
c gate 316 -312 315 0
-312 -316 0
315 -316 0
312 -315 316 0
c gate 317 6 70 0
6 -317 0
70 -317 0
-6 -70 317 0
c gate 318 5 69 0
5 -318 0
69 -318 0
-5 -69 318 0
c gate 319 -317 -318 0
-317 -319 0
-318 -319 0
317 318 319 0
c gate 320 -316 319 0
-316 -320 0
319 -320 0
316 -319 320 0
c gate 321 -7 -71 0
-7 -321 0
-71 -321 0
7 71 321 0
c gate 322 -6 -70 0
-6 -322 0
-70 -322 0
6 70 322 0
c gate 323 -321 -322 0
-321 -323 0
-322 -323 0
321 322 323 0
c gate 324 -320 323 0
-320 -324 0
323 -324 0
320 -323 324 0
c gate 325 8 72 0
8 -325 0
72 -325 0
-8 -72 325 0
c gate 326 7 71 0
7 -326 0
71 -326 0
-7 -71 326 0
c gate 327 -325 -326 0
-325 -327 0
-326 -327 0
325 326 327 0
c gate 328 -324 327 0
-324 -328 0
327 -328 0
324 -327 328 0
c gate 329 -9 -73 0
-9 -329 0
-73 -329 0
9 73 329 0
c gate 330 -8 -72 0
-8 -330 0
-72 -330 0
8 72 330 0
c gate 331 -329 -330 0
-329 -331 0
-330 -331 0
329 330 331 0
c gate 332 -328 331 0
-328 -332 0
331 -332 0
328 -331 332 0
c gate 333 10 74 0
10 -333 0
74 -333 0
-10 -74 333 0
c gate 334 9 73 0
9 -334 0
73 -334 0
-9 -73 334 0
c gate 335 -333 -334 0
-333 -335 0
-334 -335 0
333 334 335 0
c gate 336 -332 335 0
-332 -336 0
335 -336 0
332 -335 336 0
c gate 337 -10 -74 0
-10 -337 0
-74 -337 0
10 74 337 0
c gate 338 -12 -76 0
-12 -338 0
-76 -338 0
12 76 338 0
c gate 339 -11 -75 0
-11 -339 0
-75 -339 0
11 75 339 0
c gate 340 -338 -339 0
-338 -340 0
-339 -340 0
338 339 340 0
c gate 341 -337 340 0
-337 -341 0
340 -341 0
337 -340 341 0
c gate 342 -336 341 0
-336 -342 0
341 -342 0
336 -341 342 0
c gate 343 12 76 0
12 -343 0
76 -343 0
-12 -76 343 0
c gate 344 11 75 0
11 -344 0
75 -344 0
-11 -75 344 0
c gate 345 -338 344 0
-338 -345 0
344 -345 0
338 -344 345 0
c gate 346 -343 -345 0
-343 -346 0
-345 -346 0
343 345 346 0
c gate 347 -342 346 0
-342 -347 0
346 -347 0
342 -346 347 0
c gate 348 -14 -78 0
-14 -348 0
-78 -348 0
14 78 348 0
c gate 349 -15 -79 0
-15 -349 0
-79 -349 0
15 79 349 0
c gate 350 -348 -349 0
-348 -350 0
-349 -350 0
348 349 350 0
c gate 351 14 78 0
14 -351 0
78 -351 0
-14 -78 351 0
c gate 352 13 77 0
13 -352 0
77 -352 0
-13 -77 352 0
c gate 353 -351 -352 0
-351 -353 0
-352 -353 0
351 352 353 0
c gate 354 -13 -77 0
-13 -354 0
-77 -354 0
13 77 354 0
c gate 355 353 -354 0
353 -355 0
-354 -355 0
-353 354 355 0
c gate 356 350 355 0
350 -356 0
355 -356 0
-350 -355 356 0
c gate 357 -347 356 0
-347 -357 0
356 -357 0
347 -356 357 0
c gate 358 350 -353 0
350 -358 0
-353 -358 0
-350 353 358 0
c gate 359 15 79 0
15 -359 0
79 -359 0
-15 -79 359 0
c gate 360 16 80 0
16 -360 0
80 -360 0
-16 -80 360 0
c gate 361 -359 -360 0
-359 -361 0
-360 -361 0
359 360 361 0
c gate 362 -358 361 0
-358 -362 0
361 -362 0
358 -361 362 0
c gate 363 -357 362 0
-357 -363 0
362 -363 0
357 -362 363 0
c gate 364 -17 -81 0
-17 -364 0
-81 -364 0
17 81 364 0
c gate 365 -16 -80 0
-16 -365 0
-80 -365 0
16 80 365 0
c gate 366 -293 -365 0
-293 -366 0
-365 -366 0
293 365 366 0
c gate 367 -364 366 0
-364 -367 0
366 -367 0
364 -366 367 0
c gate 368 -272 -282 0
-272 -368 0
-282 -368 0
272 282 368 0
c gate 369 275 368 0
275 -369 0
368 -369 0
-275 -368 369 0
c gate 370 367 369 0
367 -370 0
369 -370 0
-367 -369 370 0
c gate 371 -289 370 0
-289 -371 0
370 -371 0
289 -370 371 0
c gate 372 278 281 0
278 -372 0
281 -372 0
-278 -281 372 0
c gate 373 292 372 0
292 -373 0
372 -373 0
-292 -372 373 0
c gate 374 287 373 0
287 -374 0
373 -374 0
-287 -373 374 0
c gate 375 371 374 0
371 -375 0
374 -375 0
-371 -374 375 0
c gate 376 -363 375 0
-363 -376 0
375 -376 0
363 -375 376 0
c gate 377 -301 -376 0
-301 -377 0
-376 -377 0
301 376 377 0
c gate 378 -30 -94 0
-30 -378 0
-94 -378 0
30 94 378 0
c gate 379 -31 -95 0
-31 -379 0
-95 -379 0
31 95 379 0
c gate 380 -378 -379 0
-378 -380 0
-379 -380 0
378 379 380 0
c gate 381 30 94 0
30 -381 0
94 -381 0
-30 -94 381 0
c gate 382 29 93 0
29 -382 0
93 -382 0
-29 -93 382 0
c gate 383 -381 -382 0
-381 -383 0
-382 -383 0
381 382 383 0
c gate 384 380 -383 0
380 -384 0
-383 -384 0
-380 383 384 0
c gate 385 32 96 0
32 -385 0
96 -385 0
-32 -96 385 0
c gate 386 31 95 0
31 -386 0
95 -386 0
-31 -95 386 0
c gate 387 -385 -386 0
-385 -387 0
-386 -387 0
385 386 387 0
c gate 388 -384 387 0
-384 -388 0
387 -388 0
384 -387 388 0
c gate 389 28 92 0
28 -389 0
92 -389 0
-28 -92 389 0
c gate 390 -28 -92 0
-28 -390 0
-92 -390 0
28 92 390 0
c gate 391 27 91 0
27 -391 0
91 -391 0
-27 -91 391 0
c gate 392 -390 391 0
-390 -392 0
391 -392 0
390 -391 392 0
c gate 393 -389 -392 0
-389 -393 0
-392 -393 0
389 392 393 0
c gate 394 -26 -90 0
-26 -394 0
-90 -394 0
26 90 394 0
c gate 395 -27 -91 0
-27 -395 0
-91 -395 0
27 91 395 0
c gate 396 -390 -395 0
-390 -396 0
-395 -396 0
390 395 396 0
c gate 397 -394 396 0
-394 -397 0
396 -397 0
394 -396 397 0
c gate 398 393 397 0
393 -398 0
397 -398 0
-393 -397 398 0
c gate 399 -29 -93 0
-29 -399 0
-93 -399 0
29 93 399 0
c gate 400 380 -399 0
380 -400 0
-399 -400 0
-380 399 400 0
c gate 401 26 90 0
26 -401 0
90 -401 0
-26 -90 401 0
c gate 402 25 89 0
25 -402 0
89 -402 0
-25 -89 402 0
c gate 403 -401 -402 0
-401 -403 0
-402 -403 0
401 402 403 0
c gate 404 -25 -89 0
-25 -404 0
-89 -404 0
25 89 404 0
c gate 405 -32 -96 0
-32 -405 0
-96 -405 0
32 96 405 0
c gate 406 -404 -405 0
-404 -406 0
-405 -406 0
404 405 406 0
c gate 407 403 406 0
403 -407 0
406 -407 0
-403 -406 407 0
c gate 408 400 407 0
400 -408 0
407 -408 0
-400 -407 408 0
c gate 409 398 408 0
398 -409 0
408 -409 0
-398 -408 409 0
c gate 410 388 409 0
388 -410 0
409 -410 0
-388 -409 410 0
c gate 411 -377 410 0
-377 -411 0
410 -411 0
377 -410 411 0
c gate 412 398 -403 0
398 -412 0
-403 -412 0
-398 403 412 0
c gate 413 393 -412 0
393 -413 0
-412 -413 0
-393 412 413 0
c gate 414 400 -413 0
400 -414 0
-413 -414 0
-400 413 414 0
c gate 415 388 -414 0
388 -415 0
-414 -415 0
-388 414 415 0
c gate 416 -405 -415 0
-405 -416 0
-415 -416 0
405 415 416 0
c gate 417 -411 -416 0
-411 -417 0
-416 -417 0
411 416 417 0
c gate 418 271 -417 0
271 -418 0
-417 -418 0
-271 417 418 0
c gate 419 266 -418 0
266 -419 0
-418 -419 0
-266 418 419 0
c gate 420 231 -419 0
231 -420 0
-419 -420 0
-231 419 420 0
c gate 421 209 -212 0
209 -421 0
-212 -421 0
-209 212 421 0
c gate 422 204 -421 0
204 -422 0
-421 -422 0
-204 421 422 0
c gate 423 230 -422 0
230 -423 0
-422 -423 0
-230 422 423 0
c gate 424 218 -227 0
218 -424 0
-227 -424 0
-218 227 424 0
c gate 425 221 -424 0
221 -425 0
-424 -425 0
-221 424 425 0
c gate 426 -222 -425 0
-222 -426 0
-425 -426 0
222 425 426 0
c gate 427 -423 -426 0
-423 -427 0
-426 -427 0
423 426 427 0
c gate 428 -420 427 0
-420 -428 0
427 -428 0
420 -427 428 0
c gate 429 199 -428 0
199 -429 0
-428 -429 0
-199 428 429 0
c gate 430 -190 -429 0
-190 -430 0
-429 -430 0
190 429 430 0
c gate 431 160 -430 0
160 -431 0
-430 -431 0
-160 430 431 0
c gate 432 231 -246 0
231 -432 0
-246 -432 0
-231 246 432 0
c gate 433 427 -432 0
427 -433 0
-432 -433 0
-427 432 433 0
c gate 434 199 -433 0
199 -434 0
-433 -434 0
-199 433 434 0
c gate 435 -190 -434 0
-190 -435 0
-434 -435 0
190 434 435 0
c gate 436 160 -435 0
160 -436 0
-435 -436 0
-160 435 436 0
c gate 437 -140 -436 0
-140 -437 0
-436 -437 0
140 436 437 0
c gate 438 -139 156 0
-139 -438 0
156 -438 0
139 -156 438 0
c gate 439 153 -438 0
153 -439 0
-438 -439 0
-153 438 439 0
c gate 440 148 -439 0
148 -440 0
-439 -440 0
-148 439 440 0
c gate 441 146 -440 0
146 -441 0
-440 -441 0
-146 440 441 0
c gate 442 -437 441 0
-437 -442 0
441 -442 0
437 -441 442 0
c gate 443 431 442 0
431 -443 0
442 -443 0
-431 -442 443 0
c PO
443 0
